proyfinal/src/viki/013/andrea/andrea-localstore/experimentInOfficeAgust.take6/worker_10/3e09fddb-e258-4c45-befe-080ec2f5ea6f.als.cnf.out
Reading from standard input... Use '--help' for help.
============================[ Problem Statistics ]=============================
|                                                                             |
|  Number of variables:         87638                                         |
|  Number of clauses:          161767                                         |
|  Parse time:                   0.04 s                                       |
|                                                                             |
============================[ Search Statistics ]==============================
| Conflicts |          ORIGINAL         |          LEARNT          | Progress |
|           |    Vars  Clauses Literals |    Limit  Clauses Lit/Cl |          |
===============================================================================
|       100 |   62690   106254   265574 |    38959      100      9 | 28.467 % |
|       250 |   48671    67079   169164 |    42855      230     27 | 44.464 % |
|       475 |   48625    66713   168276 |    47141      453     39 | 44.516 % |
|       812 |   48300    65673   165832 |    51855      774     39 | 44.887 % |
|      1318 |   48153    64775   163678 |    57041     1267     39 | 45.055 % |
|      2077 |   47887    63720   161198 |    62745     1734     37 | 45.358 % |
|      3216 |   47576    62652   158549 |    69019     2838     44 | 45.713 % |
|      4924 |   47135    60940   154354 |    75921     4503     43 | 46.216 % |
|      7486 |   46944    59997   152071 |    83513     7007     43 | 46.434 % |
===============================================================================
restarts              : 41
conflicts             : 9528           (8727 /sec)
decisions             : 35501          (0.00 % random) (32516 /sec)
propagations          : 12668429       (11603357 /sec)
conflict literals     : 387395         (40.37 % deleted)
Memory used           : 25.37 MB
CPU time              : 1.09179 s

UNSATISFIABLE
